Rodando pra 1h

Optimize a model with 250087 rows, 374322 columns and 9218911 nonzeros
Coefficient statistics:
  Matrix range    [1e+00, 1e+04]
  Objective range [2e-01, 2e-01]
  Bounds range    [1e+00, 1e+04]
  RHS range       [1e+00, 1e+04]
Presolve removed 2 rows and 2 columns (presolve time = 9s) ...
Presolve removed 4 rows and 4 columns (presolve time = 13s) ...
Presolve removed 4 rows and 4 columns (presolve time = 17s) ...
Presolve removed 4 rows and 4 columns (presolve time = 20s) ...
Presolve removed 4 rows and 4 columns (presolve time = 26s) ...
Presolve removed 4 rows and 4 columns (presolve time = 31s) ...
Presolve removed 4 rows and 4 columns (presolve time = 36s) ...
Presolve removed 4 rows and 4 columns (presolve time = 41s) ...
Presolve removed 4 rows and 4 columns (presolve time = 46s) ...
Presolve removed 4 rows and 4 columns (presolve time = 50s) ...
Presolve removed 4 rows and 4 columns (presolve time = 55s) ...
Presolve removed 4 rows and 4 columns (presolve time = 61s) ...
Presolve removed 4 rows and 4 columns (presolve time = 66s) ...
Presolve removed 4 rows and 4 columns (presolve time = 71s) ...
Presolve removed 4 rows and 4 columns (presolve time = 76s) ...
Presolve removed 4 rows and 4 columns (presolve time = 80s) ...
Presolve removed 4 rows and 4 columns (presolve time = 89s) ...
Presolve removed 4 rows and 4 columns (presolve time = 91s) ...
Presolve removed 4 rows and 4 columns (presolve time = 97s) ...
Presolve removed 4 rows and 4 columns
Presolve time: 97.37s
Presolved: 250083 rows, 374318 columns, 9218887 nonzeros
Variable types: 249500 continuous, 124818 integer (124814 binary)
Optimize a model with 250083 rows, 374318 columns and 9218887 nonzeros
Coefficient statistics:
  Matrix range    [1e+00, 1e+04]
  Objective range [2e-01, 2e-01]
  Bounds range    [1e+00, 1e+04]
  RHS range       [1e+00, 2e+04]
Presolve removed 0 rows and 0 columns (presolve time = 5s) ...
Presolved: 250083 rows, 374318 columns, 9218887 nonzeros


Root simplex log...

Iteration    Objective       Primal Inf.    Dual Inf.      Time
       0    0.0000000e+00   1.510975e+03   0.000000e+00    120s
    1041    0.0000000e+00   0.000000e+00   0.000000e+00    120s

Root relaxation: objective 0.000000e+00, 1041 iterations, 6.38 seconds

    Nodes    |    Current Node    |     Objective Bounds      |     Work
 Expl Unexpl |  Obj  Depth IntInf | Incumbent    BestBd   Gap | It/Node Time

     0     0    0.00000    0  520          -    0.00000      -     - 2670s
     0     0          -    0               -    0.00000      -     - 3600s

Cutting planes:
  Flow cover: 389

Explored 0 nodes (268011 simplex iterations) in 3600.07 seconds
Thread count was 1 (of 4 available processors)

Time limit reached
Best objective -, best bound 0.000000000000e+00, gap -
Tempo: 3595.08 segundos

Error code = 10004
Var::get
